21 4
5 10 15 20
010000100001000010000
101000000000000000000
010100000000000000000
001010000000000000000
000101000000000000000
000010000000000000000
100000010000000000000
000000101000000000000
000000010100000000000
000000001010000000000
000000000100000000000
100000000000100000000
000000000001010000000
000000000000101000000
000000000000010100000
000000000000001000000
100000000000000001000
000000000000000010100
000000000000000001010
000000000000000000101
000000000000000000010
